Project/riscv_conv_prove/model/design_smt2.smt2
; SMT-LIBv2 description generated by Yosys 0.63+87 (git sha1 2f1cdc2df, clang++ 18.1.8 -fPIC -O3)
; yosys-smt2-module riscv_top
(declare-sort |riscv_top_s| 0)
(declare-fun |riscv_top_is| (|riscv_top_s|) Bool)
(declare-fun |riscv_top#0| (|riscv_top_s|) Bool) ; \clk
; yosys-smt2-input clk 1
; yosys-smt2-wire clk 1
; yosys-smt2-witness {"offset": 0, "path": ["\\clk"], "smtname": "clk", "smtoffset": 0, "type": "input", "width": 1}
(define-fun |riscv_top_n clk| ((state |riscv_top_s|)) Bool (|riscv_top#0| state))
(declare-fun |riscv_top#1| (|riscv_top_s|) Bool) ; \rst_n
; yosys-smt2-input rst_n 1
; yosys-smt2-wire rst_n 1
; yosys-smt2-witness {"offset": 0, "path": ["\\rst_n"], "smtname": "rst_n", "smtoffset": 0, "type": "input", "width": 1}
(define-fun |riscv_top_n rst_n| ((state |riscv_top_s|)) Bool (|riscv_top#1| state))
(define-fun |riscv_top_a| ((state |riscv_top_s|)) Bool true)
(define-fun |riscv_top_u| ((state |riscv_top_s|)) Bool true)
(define-fun |riscv_top_i| ((state |riscv_top_s|)) Bool true)
(define-fun |riscv_top_h| ((state |riscv_top_s|)) Bool true)
(define-fun |riscv_top_t| ((state |riscv_top_s|) (next_state |riscv_top_s|)) Bool true) ; end of module riscv_top
; yosys-smt2-topmod riscv_top
; end of yosys output
